71 71
25 71
18 23
23 62
14 45
27 21
33 29
6 5
32 2
19 34
28 48
23 26
20 17
16 7
31 56
2 67
1 28
34 32
22 14
26 61
33 38
11 24
4 58
25 30
31 63
30 25
17 8
4 16
12 12
8 47
28 57
11 20
19 31
3 50
3 70
9 3
29 65
2 49
8 68
13 51
21 44
27 9
35 36
35 54
12 19
20 53
5 22
7 41
17 52
5 1
21 37
22 35
15 15
24 33
6 4
32 6
7 40
10 11
18 43
24 46
16 66
9 18
10 60
34 64
14 59
26 13
30 42
13 55
1 69
15 27
1 10
29 39
